n = 34;
lu = [|-781, 953
      |-1011, 356
      |636, 1006
      |-715, 715
      |-2, 394
      |577, 662
      |-954, -565
      |-784, 536
      |-849, 1070
      |26, 323
      |614, 1148
      |-1017, 343
      |-283, 1001
      |551, 913
      |-1121, -898
      |-1125, 933
      |-875, 322
      |-1060, -235
      |170, 285
      |-504, 1004
      |-1101, -1068
      |-264, 120
      |-226, 935
      |-984, 79
      |-40, 2
      |-323, 815
      |-570, -284
      |-959, -65
      |641, 683
      |-727, 1124
      |-1146, -64
      |-795, -177
      |-623, 659
      |241, 280|];
